tsp_instances/TSP50/instance14.tsp
NODE_COORD_SECTION
0 129 170
1 120 18
2 139 60
3 86 128
4 45 50
5 156 162
6 81 2
7 83 7
8 198 63
9 67 65
10 92 167
11 180 39
12 75 89
13 34 109
14 148 31
15 115 22
16 159 79
17 186 156
18 198 174
19 180 31
20 133 132
21 21 198
22 32 147
23 10 91
24 36 92
25 115 36
26 75 126
27 112 149
28 146 136
29 128 21
30 54 196
31 197 118
32 71 187
33 124 131
34 42 76
35 144 124
36 79 174
37 44 103
38 27 92
39 120 148
40 27 169
41 140 174
42 23 64
43 49 1
44 185 158
45 86 106
46 113 132
47 198 70
48 113 17
49 53 129
