tsp_instances/TSP50/instance14.opt.tour
TOUR_SECTION
1
29
36
21
34
47
40
28
11
37
33
31
22
41
23
50
27
4
46
13
10
35
25
38
14
39
24
43
5
44
7
8
26
16
49
2
30
15
3
17
20
12
9
48
32
18
45
19
6
42
-1